p tw 81 9721 2 
1 3 
1 4 
1 5 
1 6 
1 7 
1 8 
1 9 
1 10 
1 18 
1 19 
1 26 
1 28 
1 34 
1 37 
1 42 
1 46 
1 50 
1 55 
1 58 
1 64 
1 66 
1 73 
1 74 
2 3 
2 4 
2 5 
2 6 
2 7 
2 8 
2 9 
2 10 
2 11 
2 20 
2 27 
2 29 
2 35 
2 38 
2 43 
2 47 
2 51 
2 56 
2 59 
2 65 
2 67 
2 74 
2 75 
3 4 
3 5 
3 6 
3 7 
3 8 
3 9 
3 11 
3 12 
3 19 
3 21 
3 30 
3 36 
3 39 
3 44 
3 48 
3 52 
3 57 
3 60 
3 66 
3 68 
3 75 
3 76 
4 5 
4 6 
4 7 
4 8 
4 9 
4 12 
4 13 
4 20 
4 22 
4 28 
4 31 
4 40 
4 45 
4 49 
4 53 
4 58 
4 61 
4 67 
4 69 
4 76 
4 77 
5 6 
5 7 
5 8 
5 9 
5 13 
5 14 
5 21 
5 23 
5 29 
5 32 
5 37 
5 41 
5 50 
5 54 
5 59 
5 62 
5 68 
5 70 
5 77 
5 78 
6 7 
6 8 
6 9 
6 14 
6 15 
6 22 
6 24 
6 30 
6 33 
6 38 
6 42 
6 46 
6 51 
6 60 
6 63 
6 69 
6 71 
6 78 
6 79 
7 8 
7 9 
7 15 
7 16 
7 23 
7 25 
7 31 
7 34 
7 39 
7 43 
7 47 
7 52 
7 55 
7 61 
7 70 
7 72 
7 79 
7 80 
8 9 
8 16 
8 17 
8 24 
8 26 
8 32 
8 35 
8 40 
8 44 
8 48 
8 53 
8 56 
8 62 
8 64 
8 71 
8 80 
8 81 
9 17 
9 18 
9 25 
9 27 
9 33 
9 36 
9 41 
9 45 
9 49 
9 54 
9 57 
9 63 
9 65 
9 72 
9 73 
9 81 
10 11 
10 12 
10 13 
10 14 
10 15 
10 16 
10 17 
10 18 
10 19 
10 27 
10 28 
10 35 
10 37 
10 43 
10 46 
10 51 
10 55 
10 59 
10 64 
10 67 
10 73 
10 75 
11 12 
11 13 
11 14 
11 15 
11 16 
11 17 
11 18 
11 19 
11 20 
11 29 
11 36 
11 38 
11 44 
11 47 
11 52 
11 56 
11 60 
11 65 
11 68 
11 74 
11 76 
12 13 
12 14 
12 15 
12 16 
12 17 
12 18 
12 20 
12 21 
12 28 
12 30 
12 39 
12 45 
12 48 
12 53 
12 57 
12 61 
12 66 
12 69 
12 75 
12 77 
13 14 
13 15 
13 16 
13 17 
13 18 
13 21 
13 22 
13 29 
13 31 
13 37 
13 40 
13 49 
13 54 
13 58 
13 62 
13 67 
13 70 
13 76 
13 78 
14 15 
14 16 
14 17 
14 18 
14 22 
14 23 
14 30 
14 32 
14 38 
14 41 
14 46 
14 50 
14 59 
14 63 
14 68 
14 71 
14 77 
14 79 
15 16 
15 17 
15 18 
15 23 
15 24 
15 31 
15 33 
15 39 
15 42 
15 47 
15 51 
15 55 
15 60 
15 69 
15 72 
15 78 
15 80 
16 17 
16 18 
16 24 
16 25 
16 32 
16 34 
16 40 
16 43 
16 48 
16 52 
16 56 
16 61 
16 64 
16 70 
16 79 
16 81 
17 18 
17 25 
17 26 
17 33 
17 35 
17 41 
17 44 
17 49 
17 53 
17 57 
17 62 
17 65 
17 71 
17 73 
17 80 
18 26 
18 27 
18 34 
18 36 
18 42 
18 45 
18 50 
18 54 
18 58 
18 63 
18 66 
18 72 
18 74 
18 81 
19 20 
19 21 
19 22 
19 23 
19 24 
19 25 
19 26 
19 27 
19 28 
19 36 
19 37 
19 44 
19 46 
19 52 
19 55 
19 60 
19 64 
19 68 
19 73 
19 76 
20 21 
20 22 
20 23 
20 24 
20 25 
20 26 
20 27 
20 28 
20 29 
20 38 
20 45 
20 47 
20 53 
20 56 
20 61 
20 65 
20 69 
20 74 
20 77 
21 22 
21 23 
21 24 
21 25 
21 26 
21 27 
21 29 
21 30 
21 37 
21 39 
21 48 
21 54 
21 57 
21 62 
21 66 
21 70 
21 75 
21 78 
22 23 
22 24 
22 25 
22 26 
22 27 
22 30 
22 31 
22 38 
22 40 
22 46 
22 49 
22 58 
22 63 
22 67 
22 71 
22 76 
22 79 
23 24 
23 25 
23 26 
23 27 
23 31 
23 32 
23 39 
23 41 
23 47 
23 50 
23 55 
23 59 
23 68 
23 72 
23 77 
23 80 
24 25 
24 26 
24 27 
24 32 
24 33 
24 40 
24 42 
24 48 
24 51 
24 56 
24 60 
24 64 
24 69 
24 78 
24 81 
25 26 
25 27 
25 33 
25 34 
25 41 
25 43 
25 49 
25 52 
25 57 
25 61 
25 65 
25 70 
25 73 
25 79 
26 27 
26 34 
26 35 
26 42 
26 44 
26 50 
26 53 
26 58 
26 62 
26 66 
26 71 
26 74 
26 80 
27 35 
27 36 
27 43 
27 45 
27 51 
27 54 
27 59 
27 63 
27 67 
27 72 
27 75 
27 81 
28 29 
28 30 
28 31 
28 32 
28 33 
28 34 
28 35 
28 36 
28 37 
28 45 
28 46 
28 53 
28 55 
28 61 
28 64 
28 69 
28 73 
28 77 
29 30 
29 31 
29 32 
29 33 
29 34 
29 35 
29 36 
29 37 
29 38 
29 47 
29 54 
29 56 
29 62 
29 65 
29 70 
29 74 
29 78 
30 31 
30 32 
30 33 
30 34 
30 35 
30 36 
30 38 
30 39 
30 46 
30 48 
30 57 
30 63 
30 66 
30 71 
30 75 
30 79 
31 32 
31 33 
31 34 
31 35 
31 36 
31 39 
31 40 
31 47 
31 49 
31 55 
31 58 
31 67 
31 72 
31 76 
31 80 
32 33 
32 34 
32 35 
32 36 
32 40 
32 41 
32 48 
32 50 
32 56 
32 59 
32 64 
32 68 
32 77 
32 81 
33 34 
33 35 
33 36 
33 41 
33 42 
33 49 
33 51 
33 57 
33 60 
33 65 
33 69 
33 73 
33 78 
34 35 
34 36 
34 42 
34 43 
34 50 
34 52 
34 58 
34 61 
34 66 
34 70 
34 74 
34 79 
35 36 
35 43 
35 44 
35 51 
35 53 
35 59 
35 62 
35 67 
35 71 
35 75 
35 80 
36 44 
36 45 
36 52 
36 54 
36 60 
36 63 
36 68 
36 72 
36 76 
36 81 
37 38 
37 39 
37 40 
37 41 
37 42 
37 43 
37 44 
37 45 
37 46 
37 54 
37 55 
37 62 
37 64 
37 70 
37 73 
37 78 
38 39 
38 40 
38 41 
38 42 
38 43 
38 44 
38 45 
38 46 
38 47 
38 56 
38 63 
38 65 
38 71 
38 74 
38 79 
39 40 
39 41 
39 42 
39 43 
39 44 
39 45 
39 47 
39 48 
39 55 
39 57 
39 66 
39 72 
39 75 
39 80 
40 41 
40 42 
40 43 
40 44 
40 45 
40 48 
40 49 
40 56 
40 58 
40 64 
40 67 
40 76 
40 81 
41 42 
41 43 
41 44 
41 45 
41 49 
41 50 
41 57 
41 59 
41 65 
41 68 
41 73 
41 77 
42 43 
42 44 
42 45 
42 50 
42 51 
42 58 
42 60 
42 66 
42 69 
42 74 
42 78 
43 44 
43 45 
43 51 
43 52 
43 59 
43 61 
43 67 
43 70 
43 75 
43 79 
44 45 
44 52 
44 53 
44 60 
44 62 
44 68 
44 71 
44 76 
44 80 
45 53 
45 54 
45 61 
45 63 
45 69 
45 72 
45 77 
45 81 
46 47 
46 48 
46 49 
46 50 
46 51 
46 52 
46 53 
46 54 
46 55 
46 63 
46 64 
46 71 
46 73 
46 79 
47 48 
47 49 
47 50 
47 51 
47 52 
47 53 
47 54 
47 55 
47 56 
47 65 
47 72 
47 74 
47 80 
48 49 
48 50 
48 51 
48 52 
48 53 
48 54 
48 56 
48 57 
48 64 
48 66 
48 75 
48 81 
49 50 
49 51 
49 52 
49 53 
49 54 
49 57 
49 58 
49 65 
49 67 
49 73 
49 76 
50 51 
50 52 
50 53 
50 54 
50 58 
50 59 
50 66 
50 68 
50 74 
50 77 
51 52 
51 53 
51 54 
51 59 
51 60 
51 67 
51 69 
51 75 
51 78 
52 53 
52 54 
52 60 
52 61 
52 68 
52 70 
52 76 
52 79 
53 54 
53 61 
53 62 
53 69 
53 71 
53 77 
53 80 
54 62 
54 63 
54 70 
54 72 
54 78 
54 81 
55 56 
55 57 
55 58 
55 59 
55 60 
55 61 
55 62 
55 63 
55 64 
55 72 
55 73 
55 80 
56 57 
56 58 
56 59 
56 60 
56 61 
56 62 
56 63 
56 64 
56 65 
56 74 
56 81 
57 58 
57 59 
57 60 
57 61 
57 62 
57 63 
57 65 
57 66 
57 73 
57 75 
58 59 
58 60 
58 61 
58 62 
58 63 
58 66 
58 67 
58 74 
58 76 
59 60 
59 61 
59 62 
59 63 
59 67 
59 68 
59 75 
59 77 
60 61 
60 62 
60 63 
60 68 
60 69 
60 76 
60 78 
61 62 
61 63 
61 69 
61 70 
61 77 
61 79 
62 63 
62 70 
62 71 
62 78 
62 80 
63 71 
63 72 
63 79 
63 81 
64 65 
64 66 
64 67 
64 68 
64 69 
64 70 
64 71 
64 72 
64 73 
64 81 
65 66 
65 67 
65 68 
65 69 
65 70 
65 71 
65 72 
65 73 
65 74 
66 67 
66 68 
66 69 
66 70 
66 71 
66 72 
66 74 
66 75 
67 68 
67 69 
67 70 
67 71 
67 72 
67 75 
67 76 
68 69 
68 70 
68 71 
68 72 
68 76 
68 77 
69 70 
69 71 
69 72 
69 77 
69 78 
70 71 
70 72 
70 78 
70 79 
71 72 
71 79 
71 80 
72 80 
72 81 
73 74 
73 75 
73 76 
73 77 
73 78 
73 79 
73 80 
73 81 
74 75 
74 76 
74 77 
74 78 
74 79 
74 80 
74 81 
75 76 
75 77 
75 78 
75 79 
75 80 
75 81 
76 77 
76 78 
76 79 
76 80 
76 81 
77 78 
77 79 
77 80 
77 81 
78 79 
78 80 
78 81 
79 80 
79 81 
80 81 
